-1 -1 -1 -1 -1 -1 -1 -1 -1 -1 -1 -1 -1 -1 0 -1 -1 -1 -1 -1 -1 -1 -1 -1 -1 -1 -1 -1 -1 -1 -1 -1 -1 -1 -1 -1
-1 -1 -1 -1 -1 -1 -1 -1 -1 -1 -1 -1 -1 -1 0 1 -1 -1 -1 -1 -1 -1 -1 -1 -1 -1 -1 -1 -1 -1 -1 -1 -1 -1 -1 -1
-1 -1 -1 -1 -1 -1 -1 -1 -1 -1 -1 -1 -1 -1 0 1 -1 -1 -1 -1 2 -1 -1 -1 -1 -1 -1 -1 -1 -1 -1 -1 -1 -1 -1 -1
-1 -1 -1 -1 -1 -1 -1 -1 -1 -1 -1 -1 -1 -1 0 1 -1 -1 -1 -1 2 3 -1 -1 -1 -1 -1 -1 -1 -1 -1 -1 -1 -1 -1 -1
-1 -1 -1 -1 -1 -1 -1 -1 3 -1 -1 -1 -1 -1 0 1 -1 -1 -1 -1 2 3 -1 -1 -1 -1 -1 -1 -1 -1 -1 -1 -1 -1 -1 -1
-1 -1 -1 -1 -1 -1 -1 -1 3 -1 -1 -1 -1 4 0 1 -1 -1 -1 -1 2 3 -1 -1 -1 -1 -1 -1 -1 -1 -1 -1 -1 -1 -1 -1
-1 -1 -1 -1 -1 -1 -1 -1 3 -1 -1 -1 -1 4 0 1 2 -1 -1 -1 2 3 -1 -1 -1 -1 -1 -1 -1 -1 -1 -1 -1 -1 -1 -1
-1 -1 -1 -1 -1 -1 -1 -1 3 -1 -1 -1 -1 4 0 1 2 -1 -1 1 2 3 -1 -1 -1 -1 -1 -1 -1 -1 -1 -1 -1 -1 -1 -1
-1 -1 -1 -1 -1 -1 -1 -1 3 -1 -1 -1 -1 4 0 1 2 -1 -1 1 2 3 -1 -1 -1 -1 -1 0 -1 -1 -1 -1 -1 -1 -1 -1
-1 -1 -1 -1 -1 -1 -1 2 3 -1 -1 -1 -1 4 0 1 2 -1 -1 1 2 3 -1 -1 -1 -1 -1 0 -1 -1 -1 -1 -1 -1 -1 -1
-1 -1 -1 -1 -1 -1 -1 2 3 -1 -1 -1 -1 4 0 1 2 -1 -1 1 2 3 -1 -1 -1 3 -1 0 -1 -1 -1 -1 -1 -1 -1 -1
-1 -1 -1 2 -1 -1 -1 2 3 -1 -1 -1 -1 4 0 1 2 -1 -1 1 2 3 -1 -1 -1 3 -1 0 -1 -1 -1 -1 -1 -1 -1 -1
-1 -1 -1 2 -1 -1 1 2 3 -1 -1 -1 -1 4 0 1 2 -1 -1 1 2 3 -1 -1 -1 3 -1 0 -1 -1 -1 -1 -1 -1 -1 -1
4 -1 -1 2 -1 -1 1 2 3 -1 -1 -1 -1 4 0 1 2 -1 -1 1 2 3 -1 -1 -1 3 -1 0 -1 -1 -1 -1 -1 -1 -1 -1
4 -1 -1 2 -1 -1 1 2 3 -1 -1 -1 -1 4 0 1 2 -1 -1 1 2 3 -1 -1 -1 3 -1 0 -1 -1 -1 -1 -1 -1 -1 1
4 -1 -1 2 -1 -1 1 2 3 -1 -1 -1 -1 4 0 1 2 -1 -1 1 2 3 -1 -1 -1 3 -1 0 5 -1 -1 -1 -1 -1 -1 1
4 -1 -1 2 3 -1 1 2 3 -1 -1 -1 -1 4 0 1 2 -1 -1 1 2 3 -1 -1 -1 3 -1 0 5 -1 -1 -1 -1 -1 -1 1
4 -1 -1 2 3 -1 1 2 3 -1 -1 -1 -1 4 0 1 2 -1 -1 1 2 3 -1 -1 -1 3 -1 0 5 -1 -1 -1 -1 -1 6 1
4 -1 -1 2 3 -1 1 2 3 -1 -1 -1 -1 4 0 1 2 -1 -1 1 2 3 4 -1 -1 3 -1 0 5 -1 -1 -1 -1 -1 6 1
4 -1 -1 2 3 -1 1 2 3 -1 -1 -1 -1 4 0 1 2 -1 -1 1 2 3 4 -1 -1 3 -1 0 5 2 -1 -1 -1 -1 6 1
4 -1 -1 2 3 -1 1 2 3 -1 -1 -1 -1 4 0 1 2 -1 -1 1 2 3 4 -1 -1 3 -1 0 5 2 -1 -1 5 -1 6 1
4 -1 -1 2 3 -1 1 2 3 -1 -1 -1 -1 4 0 1 2 -1 -1 1 2 3 4 -1 -1 3 -1 0 5 2 0 -1 5 -1 6 1
4 -1 -1 2 3 -1 1 2 3 -1 -1 -1 -1 4 0 1 2 -1 -1 1 2 3 4 -1 -1 3 -1 0 5 2 0 7 5 -1 6 1
4 -1 -1 2 3 -1 1 2 3 -1 7 -1 -1 4 0 1 2 -1 -1 1 2 3 4 -1 -1 3 -1 0 5 2 0 7 5 -1 6 1
4 -1 -1 2 3 -1 1 2 3 -1 7 -1 -1 4 0 1 2 -1 -1 1 2 3 4 -1 6 3 -1 0 5 2 0 7 5 -1 6 1
4 -1 -1 2 3 -1 1 2 3 -1 7 -1 -1 4 0 1 2 -1 -1 1 2 3 4 -1 6 3 4 0 5 2 0 7 5 -1 6 1
4 -1 -1 2 3 -1 1 2 3 -1 7 -1 -1 4 0 1 2 -1 -1 1 2 3 4 -1 6 3 4 0 5 2 0 7 5 8 6 1
4 -1 -1 2 3 -1 1 2 3 4 7 -1 -1 4 0 1 2 -1 -1 1 2 3 4 -1 6 3 4 0 5 2 0 7 5 8 6 1
4 -1 -1 2 3 -1 1 2 3 4 7 -1 -1 4 0 1 2 -1 7 1 2 3 4 -1 6 3 4 0 5 2 0 7 5 8 6 1
4 -1 -1 2 3 -1 1 2 3 4 7 -1 -1 4 0 1 2 -1 7 1 2 3 4 0 6 3 4 0 5 2 0 7 5 8 6 1
4 -1 -1 2 3 -1 1 2 3 4 7 -1 3 4 0 1 2 -1 7 1 2 3 4 0 6 3 4 0 5 2 0 7 5 8 6 1
4 -1 -1 2 3 -1 1 2 3 4 7 -1 3 4 0 1 2 6 7 1 2 3 4 0 6 3 4 0 5 2 0 7 5 8 6 1
4 -1 -1 2 3 5 1 2 3 4 7 -1 3 4 0 1 2 6 7 1 2 3 4 0 6 3 4 0 5 2 0 7 5 8 6 1
4 -1 -1 2 3 5 1 2 3 4 7 8 3 4 0 1 2 6 7 1 2 3 4 0 6 3 4 0 5 2 0 7 5 8 6 1
4 0 -1 2 3 5 1 2 3 4 7 8 3 4 0 1 2 6 7 1 2 3 4 0 6 3 4 0 5 2 0 7 5 8 6 1
4 0 1 2 3 5 1 2 3 4 7 8 3 4 0 1 2 6 7 1 2 3 4 0 6 3 4 0 5 2 0 7 5 8 6 1
